Maximize
  - 39 x0 - 45 x1 + 0 x2 + 0 x3 - 5 x4 + 0 x5 - 45 x6 - 34 x7 - 18 x8
   + 20 x9 + 16 x10 - 42 x11 + 0 x12 + 0 x13 + 33 x14 - 33 x15 + 26 x16
   - 8 x17 - 49 x18 - 35 x19 + 32 x20 + 0 x21 + 23 x22 + 47 x23 - 25 x24
   - 40 x25 - 33 x26 + 25 x27 - 47 x28 + 0 x29 + 15 x30 - 30 x31 + 0 x32
   - 37 x33 + 6 x34 - 37 x35 + 0 x36 - 44 x37 - 21 x38 + 23 x39 + [
   39 x0 ^2 - 32 x0 * x1 + 14 x0 * x2 + 42 x0 * x3 + 80 x0 * x6 + 6 x0 * x8
   - 34 x0 * x9 - 34 x0 * x11 + 90 x0 * x12 - 42 x0 * x13 + 32 x0 * x14
   + 34 x0 * x15 + 84 x0 * x16 - 20 x0 * x17 + 46 x0 * x18 - 78 x0 * x19
   + 4 x0 * x20 - 4 x0 * x21 - 44 x0 * x22 + 70 x0 * x23 - 10 x0 * x26
   + 94 x0 * x27 - 96 x0 * x28 + 18 x0 * x29 + 44 x0 * x30 - 38 x0 * x32
   - 88 x0 * x33 - 38 x0 * x34 + 70 x0 * x35 - 42 x0 * x36 - 24 x0 * x37
   + 72 x0 * x38 - 82 x0 * x39 + 14 x1 ^2 - 12 x1 * x2 + 92 x1 * x3
   + 16 x1 * x4 + 2 x1 * x5 - 30 x1 * x6 - 46 x1 * x7 - 64 x1 * x8
   + 6 x1 * x9 - 60 x1 * x10 - 12 x1 * x11 - 58 x1 * x12 + 28 x1 * x14
   - 54 x1 * x15 - 32 x1 * x16 + 42 x1 * x17 - 92 x1 * x19 - 48 x1 * x20
   - 84 x1 * x23 - 46 x1 * x24 - 38 x1 * x25 - 54 x1 * x26 - 92 x1 * x27
   - 58 x1 * x28 - 56 x1 * x29 - 22 x1 * x30 - 14 x1 * x31 - 54 x1 * x34
   - 20 x1 * x35 + 12 x1 * x36 - 70 x1 * x37 + 70 x1 * x38 - 88 x1 * x39
   - 12 x2 * x3 + 38 x2 * x4 - 8 x2 * x6 - 94 x2 * x8 - 22 x2 * x9
   + 52 x2 * x10 + 78 x2 * x11 - 34 x2 * x12 - 58 x2 * x13 - 64 x2 * x14
   - 20 x2 * x15 + 4 x2 * x17 - 52 x2 * x19 + 30 x2 * x21 + 90 x2 * x22
   + 14 x2 * x27 - 16 x2 * x28 - 32 x2 * x30 - 58 x2 * x31 + 84 x2 * x32
   + 46 x2 * x33 + 70 x2 * x34 - 40 x2 * x35 + 80 x2 * x36 + 12 x2 * x37
   + 46 x2 * x38 - 98 x2 * x39 + 9 x3 ^2 + 92 x3 * x4 + 86 x3 * x6
   + 46 x3 * x7 + 12 x3 * x8 + 84 x3 * x12 + 82 x3 * x13 - 84 x3 * x15
   - 90 x3 * x16 + 88 x3 * x17 - 88 x3 * x18 + 62 x3 * x19 - 38 x3 * x20
   - 42 x3 * x21 + 22 x3 * x22 - 78 x3 * x23 - 8 x3 * x24 + 82 x3 * x26
   + 78 x3 * x27 + 66 x3 * x28 - 94 x3 * x29 - 64 x3 * x31 + 14 x3 * x32
   + 20 x3 * x34 + 18 x3 * x35 + 2 x3 * x36 + 6 x3 * x37 - 20 x3 * x38
   + 32 x3 * x39 + 68 x4 * x7 + 58 x4 * x8 - 22 x4 * x9 - 34 x4 * x10
   + 76 x4 * x12 - 16 x4 * x13 + 10 x4 * x14 + 16 x4 * x15 - 78 x4 * x16
   - 86 x4 * x17 + 30 x4 * x18 + 68 x4 * x19 + 48 x4 * x20 + 10 x4 * x21
   - 38 x4 * x22 + 70 x4 * x24 + 62 x4 * x25 - 72 x4 * x26 + 82 x4 * x27
   + 92 x4 * x29 + 50 x4 * x31 - 96 x4 * x32 - 70 x4 * x34 + 90 x4 * x35
   + 62 x4 * x36 + 64 x4 * x37 + 34 x4 * x38 - 20 x4 * x39 - 36 x5 ^2
   + 92 x5 * x6 - 36 x5 * x8 - 74 x5 * x10 + 50 x5 * x12 + 94 x5 * x13
   - 76 x5 * x14 + 26 x5 * x15 - 26 x5 * x17 - 56 x5 * x21 + 64 x5 * x22
   + 92 x5 * x24 + 72 x5 * x25 + 60 x5 * x26 + 90 x5 * x30 - 84 x5 * x31
   - 10 x5 * x32 - 6 x5 * x33 + 54 x5 * x34 - 90 x5 * x35 + 98 x5 * x36
   + 70 x5 * x39 + 40 x6 * x8 + 42 x6 * x10 - 60 x6 * x11 + 84 x6 * x12
   + 60 x6 * x13 - 26 x6 * x14 - 92 x6 * x15 + 8 x6 * x16 - 74 x6 * x17
   + 32 x6 * x22 + 40 x6 * x23 - 32 x6 * x25 - 50 x6 * x26 + 2 x6 * x27
   + 2 x6 * x28 + 50 x6 * x29 - 72 x6 * x30 - 90 x6 * x31 - 50 x6 * x32
   + 76 x6 * x33 + 32 x6 * x36 - 94 x6 * x38 + 14 x6 * x39 + x7 ^2
   + 76 x7 * x8 + 62 x7 * x11 + 96 x7 * x13 + 14 x7 * x14 - 26 x7 * x15
   - 18 x7 * x17 - 2 x7 * x18 - 4 x7 * x19 + 76 x7 * x20 - 8 x7 * x21
   - 94 x7 * x22 + 72 x7 * x23 - 82 x7 * x24 - 20 x7 * x25 - 94 x7 * x26
   - 40 x7 * x27 - 24 x7 * x28 + 50 x7 * x29 + 6 x7 * x30 + 54 x7 * x32
   + 42 x7 * x34 + 64 x7 * x36 - 88 x7 * x37 + 46 x7 * x38 + 60 x8 * x9
   + 6 x8 * x10 - 72 x8 * x11 + 80 x8 * x13 - 94 x8 * x14 - 10 x8 * x15
   + 80 x8 * x16 - 84 x8 * x17 + 84 x8 * x18 - 64 x8 * x19 - 56 x8 * x20
   + 80 x8 * x21 + 2 x8 * x22 + 88 x8 * x24 + 48 x8 * x26 + 58 x8 * x27
   + 30 x8 * x28 - 86 x8 * x29 + 74 x8 * x30 + 62 x8 * x31 - 18 x8 * x32
   + 10 x8 * x34 + 52 x8 * x35 - 44 x8 * x36 + 58 x8 * x37 + 76 x8 * x38
   + 74 x8 * x39 - 7 x9 ^2 + 40 x9 * x10 - 88 x9 * x11 - 6 x9 * x12
   - 98 x9 * x13 + 90 x9 * x14 - 36 x9 * x15 + 66 x9 * x16 - 98 x9 * x17
   + 94 x9 * x22 + 32 x9 * x23 + 42 x9 * x25 + 14 x9 * x26 - 14 x9 * x28
   + 12 x9 * x29 - 16 x9 * x30 + 20 x9 * x31 - 38 x9 * x32 - 52 x9 * x33
   + 16 x9 * x35 - 16 x9 * x36 - 70 x9 * x37 - 44 x9 * x38 + 36 x9 * x39
   + 38 x10 ^2 - 90 x10 * x11 - 56 x10 * x12 + 48 x10 * x13 - 10 x10 * x14
   - 38 x10 * x15 + 88 x10 * x16 + 70 x10 * x17 - 46 x10 * x19
   + 10 x10 * x20 + 34 x10 * x21 + 20 x10 * x23 + 56 x10 * x26
   - 70 x10 * x27 + 26 x10 * x29 + 10 x10 * x30 + 42 x10 * x31
   + 60 x10 * x32 - 84 x10 * x33 + 72 x10 * x35 - 48 x10 * x36
   - 26 x10 * x37 + 48 x10 * x38 - 18 x10 * x39 + 36 x11 ^2 + 90 x11 * x14
   - 30 x11 * x15 + 96 x11 * x16 - 70 x11 * x17 - 58 x11 * x18
   - 10 x11 * x19 - 92 x11 * x20 + 60 x11 * x21 + 46 x11 * x22
   - 62 x11 * x23 - 92 x11 * x24 + 68 x11 * x25 + 70 x11 * x26
   + 94 x11 * x27 + 88 x11 * x33 + 44 x11 * x34 + 38 x11 * x36
   + 32 x11 * x38 + 96 x11 * x39 + 86 x12 * x13 + 80 x12 * x14
   + 86 x12 * x15 + 70 x12 * x17 + 22 x12 * x18 - 2 x12 * x19
   - 26 x12 * x20 - 92 x12 * x21 + 76 x12 * x22 + 16 x12 * x23
   + 72 x12 * x24 - 20 x12 * x25 - 64 x12 * x26 - 20 x12 * x27
   - 86 x12 * x28 - 56 x12 * x29 - 50 x12 * x30 - 70 x12 * x31
   + 26 x12 * x33 + 96 x12 * x34 - 92 x12 * x37 + 32 x12 * x38
   - 26 x13 * x14 - 16 x13 * x15 + 84 x13 * x16 - 80 x13 * x17
   - 88 x13 * x18 - 56 x13 * x19 + 94 x13 * x20 + 56 x13 * x21
   - 88 x13 * x22 + 72 x13 * x23 - 94 x13 * x24 + 74 x13 * x26
   + 88 x13 * x27 - 92 x13 * x30 - 12 x13 * x31 - 92 x13 * x32
   - 22 x13 * x33 - 66 x13 * x36 - 64 x13 * x38 - 4 x13 * x39
   + 60 x14 * x15 - 12 x14 * x16 + 52 x14 * x17 - 24 x14 * x18
   + 54 x14 * x19 + 24 x14 * x20 - 16 x14 * x21 - 62 x14 * x22
   - 66 x14 * x24 - 94 x14 * x26 + 20 x14 * x27 + 68 x14 * x28
   - 20 x14 * x29 + 96 x14 * x30 + 56 x14 * x31 + 96 x14 * x32
   - 68 x14 * x33 - 98 x14 * x34 - 76 x14 * x35 + 28 x14 * x36
   - 70 x14 * x37 + 94 x14 * x38 + 82 x14 * x39 - 37 x15 ^2 + 14 x15 * x16
   - 68 x15 * x17 + 84 x15 * x19 - 16 x15 * x20 + 26 x15 * x21
   - 22 x15 * x22 + 26 x15 * x23 + 70 x15 * x24 + 6 x15 * x26
   - 76 x15 * x27 + 12 x15 * x32 - 28 x15 * x34 - 68 x15 * x37
   - 28 x15 * x38 - 70 x15 * x39 + 44 x16 * x17 + 8 x16 * x20
   + 56 x16 * x22 + 48 x16 * x23 - 46 x16 * x24 - 46 x16 * x25
   + 74 x16 * x26 + 22 x16 * x27 + 36 x16 * x28 - 70 x16 * x31
   + 10 x16 * x33 - 28 x16 * x34 + 8 x16 * x36 - 80 x16 * x38 + 38 x17 ^2
   - 20 x17 * x21 + 32 x17 * x22 - 12 x17 * x23 + 98 x17 * x24
   - 58 x17 * x25 - 32 x17 * x26 + 52 x17 * x28 - 96 x17 * x29
   + 32 x17 * x30 - 66 x17 * x31 + 82 x17 * x32 - 28 x17 * x33
   + 78 x17 * x34 - 34 x17 * x36 + 36 x17 * x37 - 82 x17 * x39 - 13 x18 ^2
   + 24 x18 * x20 + 22 x18 * x21 - 42 x18 * x23 + 22 x18 * x24
   - 50 x18 * x25 - 66 x18 * x26 + 6 x18 * x27 - 18 x18 * x28
   + 60 x18 * x29 - 88 x18 * x30 + 10 x18 * x31 - 44 x18 * x32
   + 72 x18 * x33 - 92 x18 * x34 - 36 x18 * x35 - 98 x18 * x36
   - 60 x18 * x38 + 47 x19 ^2 + 66 x19 * x22 - 60 x19 * x23 + 88 x19 * x24
   - 70 x19 * x25 + 50 x19 * x27 - 28 x19 * x29 + 62 x19 * x30
   + 38 x19 * x31 + 48 x19 * x32 + 92 x19 * x33 - 68 x19 * x34
   + 70 x19 * x36 - 16 x19 * x38 - 58 x19 * x39 - 47 x20 ^2 + 96 x20 * x21
   + 60 x20 * x22 - 32 x20 * x24 - 36 x20 * x26 - 2 x20 * x27
   + 74 x20 * x28 - 62 x20 * x29 - 82 x20 * x30 - 44 x20 * x31
   - 24 x20 * x32 - 62 x20 * x34 + 16 x20 * x35 + 70 x20 * x36
   + 68 x20 * x38 - 16 x20 * x39 - 30 x21 ^2 - 12 x21 * x22 + 16 x21 * x23
   + 50 x21 * x24 + 18 x21 * x25 + 8 x21 * x26 - 76 x21 * x28
   + 40 x21 * x29 - 68 x21 * x30 + 56 x21 * x31 - 2 x21 * x32
   - 34 x21 * x33 - 48 x21 * x34 - 88 x21 * x35 + 66 x21 * x36
   + 44 x21 * x37 - 30 x21 * x39 + 33 x22 ^2 + 38 x22 * x24 - 8 x22 * x25
   + 22 x22 * x26 + 78 x22 * x27 - 30 x22 * x28 - 36 x22 * x29
   + 34 x22 * x30 + 4 x22 * x31 - 28 x22 * x33 - 10 x22 * x34
   - 14 x22 * x35 + 56 x22 * x36 + 98 x22 * x37 - 86 x22 * x38
   - 2 x22 * x39 - 18 x23 * x24 - 98 x23 * x25 - 92 x23 * x26
   + 52 x23 * x27 - 26 x23 * x28 + 18 x23 * x29 + 2 x23 * x31
   + 76 x23 * x32 + 76 x23 * x33 - 40 x23 * x34 + 38 x23 * x35
   + 94 x23 * x36 + 44 x23 * x38 + 96 x23 * x39 - 98 x24 * x25
   + 88 x24 * x26 + 6 x24 * x28 + 2 x24 * x31 - 86 x24 * x32 - 94 x24 * x33
   - 78 x24 * x34 - 26 x24 * x37 - 66 x24 * x39 - 72 x25 * x26
   + 76 x25 * x27 + 80 x25 * x28 + 42 x25 * x30 - 62 x25 * x31
   + 34 x25 * x32 - 58 x25 * x33 - 84 x25 * x34 - 42 x25 * x35
   + 80 x25 * x36 + 8 x25 * x38 + 32 x25 * x39 - 39 x26 ^2 - 14 x26 * x28
   - 98 x26 * x31 + 94 x26 * x32 + 78 x26 * x33 + 22 x26 * x34
   + 74 x26 * x35 + 74 x26 * x37 - 76 x26 * x38 + 54 x26 * x39 - 8 x27 ^2
   - 98 x27 * x29 + 48 x27 * x31 - 2 x27 * x32 + 78 x27 * x33
   - 50 x27 * x34 - 56 x27 * x35 + 34 x27 * x36 + 68 x27 * x37
   + 54 x27 * x39 - 62 x28 * x29 - 94 x28 * x31 + 84 x28 * x32
   + 56 x28 * x33 + 40 x28 * x34 - 6 x28 * x35 - 58 x28 * x37
   + 56 x28 * x39 - 22 x29 ^2 + 72 x29 * x30 + 96 x29 * x31 - 2 x29 * x32
   - 36 x29 * x34 + 4 x29 * x35 + 34 x29 * x37 + 64 x29 * x38
   - 26 x29 * x39 - 29 x30 ^2 + 90 x30 * x31 + 14 x30 * x32 - 44 x30 * x33
   - 40 x30 * x34 - 52 x30 * x35 - 16 x30 * x36 + 86 x30 * x37
   - 94 x30 * x39 - 13 x31 ^2 - 64 x31 * x33 + 18 x31 * x34 + 30 x31 * x35
   + 40 x31 * x36 - 64 x31 * x37 - 98 x31 * x38 - 86 x31 * x39 - 49 x32 ^2
   - 62 x32 * x33 - 28 x32 * x35 + 30 x32 * x36 - 2 x32 * x37
   - 68 x32 * x38 + 74 x32 * x39 + 23 x33 ^2 + 6 x33 * x34 - 92 x33 * x36
   + 24 x33 * x38 - 68 x33 * x39 + 96 x34 * x35 - 32 x34 * x36
   + 56 x34 * x37 - 42 x34 * x38 - 52 x34 * x39 - 46 x35 ^2 - 88 x35 * x36
   - 42 x35 * x38 - 24 x35 * x39 + 56 x36 * x39 - 11 x37 ^2 + 56 x37 * x38
   - 12 x37 * x39 - 37 x38 ^2 + 10 x38 * x39 - 37 x39 ^2 ] / 2 
Subject To
Bounds
 x0 <= 1
 x1 <= 1
 x2 <= 1
 x3 <= 1
 x4 <= 1
 x5 <= 1
 x6 <= 1
 x7 <= 1
 x8 <= 1
 x9 <= 1
 x10 <= 1
 x11 <= 1
 x12 <= 1
 x13 <= 1
 x14 <= 1
 x15 <= 1
 x16 <= 1
 x17 <= 1
 x18 <= 1
 x19 <= 1
 x20 <= 1
 x21 <= 1
 x22 <= 1
 x23 <= 1
 x24 <= 1
 x25 <= 1
 x26 <= 1
 x27 <= 1
 x28 <= 1
 x29 <= 1
 x30 <= 1
 x31 <= 1
 x32 <= 1
 x33 <= 1
 x34 <= 1
 x35 <= 1
 x36 <= 1
 x37 <= 1
 x38 <= 1
 x39 <= 1
End
